Constructor : 
	simulation seed: 10
	output path: ./out/Small
	input data folder ./in/MILPexp
	output data folder ./out/Small/S5D2U3/10
	loading data from ./in/MILPexp
	initializing MILP Solver
Set parameter Username
Set parameter TimeLimit to value 86400
Set parameter MemLimit to value 64
Set parameter Method to value 0
Academic license - for non-commercial use only - expires 2023-04-21
	 Setting up MILP
6, 6
	 Saving MILP in ./out/Small/S5D2U3/10/MILP-primal/model.lp
Warning: linear constraint 33332 and linear constraint 101807 have the same name "socInit_1"
Gurobi Optimizer version 9.5.1 build v9.5.1rc2 (linux64)
Thread count: 24 physical cores, 48 logical processors, using up to 24 threads
Optimize a model with 102926 rows, 565 columns and 618705 nonzeros
Model fingerprint: 0x6b0ac1ac
Variable types: 43 continuous, 522 integer (522 binary)
Coefficient statistics:
  Matrix range     [1e+00, 2e+05]
  Objective range  [1e+00, 1e+00]
  Bounds range     [1e+00, 1e+00]
  RHS range        [1e+00, 1e+06]
Presolve removed 18312 rows and 115 columns
Presolve time: 1.66s
Presolved: 84614 rows, 450 columns, 509334 nonzeros
Variable types: 34 continuous, 416 integer (416 binary)

Root relaxation: objective 6.666667e+00, 9185 iterations, 1.30 seconds (0.93 work units)

    Nodes    |    Current Node    |     Objective Bounds      |     Work
 Expl Unexpl |  Obj  Depth IntInf | Incumbent    BestBd   Gap | It/Node Time

     0     0    6.66667    0   83          -    6.66667      -     -    4s
     0     0   14.09114    0  115          -   14.09114      -     -    6s
     0     0   14.09114    0  114          -   14.09114      -     -    7s
     0     0   14.91160    0   91          -   14.91160      -     -    8s
     0     0   14.98781    0   91          -   14.98781      -     -    9s
     0     0   14.98781    0   95          -   14.98781      -     -    9s
     0     0   15.07036    0  159          -   15.07036      -     -   12s
     0     0   15.08381    0  150          -   15.08381      -     -   13s
     0     0   15.08381    0  151          -   15.08381      -     -   13s
     0     0   16.54410    0  126          -   16.54410      -     -   16s
     0     0   16.55172    0  133          -   16.55172      -     -   17s
     0     0   16.55172    0  133          -   16.55172      -     -   17s
     0     0   16.55172    0  125          -   16.55172      -     -   18s
     0     0   16.55172    0  134          -   16.55172      -     -   19s
     0     0   16.55172    0  123          -   16.55172      -     -   21s
     0     0   16.55172    0  127          -   16.55172      -     -   22s
     0     0   16.55172    0  121          -   16.55172      -     -   25s
     0     0   16.55172    0  120          -   16.55172      -     -   25s
     0     0   16.55172    0  110          -   16.55172      -     -   28s
     0     0   16.55172    0  124          -   16.55172      -     -   28s
     0     0   16.55172    0  122          -   16.55172      -     -   30s
     0     0   16.55172    0  118          -   16.55172      -     -   30s
     0     0   16.55172    0  128          -   16.55172      -     -   32s
     0     0   16.55172    0  115          -   16.55172      -     -   33s
     0     2   16.55172    0  115          -   16.55172      -     -   48s
     1     4   16.55172    1  112          -   16.55172      -   210   50s
    31    56   18.75000    5  101          -   18.75000      -   115   56s
   103   128   40.00000    7   71          -   18.75000      -  84.6   61s
   201   239   40.00000   12   56          -   18.75000      -  69.9   65s
   319   344   43.60180   15   60          -   18.75000      -  64.9   71s
   407   431 1051.58112   18   56          -   18.75000      -  66.6   75s
   557   538 1051.58112   25   34          -   18.75000      -  67.0   82s
   667   615 2531.58112   30   33          -   18.75000      -  68.7   86s
   770   694   40.00000    7   52          -   22.34884      -  70.6   90s
  1001   802   40.20706   13   59          -   22.34884      -  67.3   96s
  1126   872 1052.20193   13   47          -   22.34884      -  68.0  101s
  1202   904  285.48255   14   45          -   22.34884      -  68.9  105s
  1365  1003  755.71429   15   46          -   22.34884      -  68.4  110s
  1549  1079  755.92134   14   71          -   22.34884      -  67.8  116s
  1621  1132  759.31608   17   58          -   22.34884      -  69.2  120s
  1707  1184 2063.78305   13   53          -   22.34884      -  69.6  128s
  1802  1219 infeasible   20               -   22.34884      -  69.0  131s
  2014  1315 1767.29540   24   45          -   22.34884      -  70.0  138s
  2140  1381 1767.29540   30   57          -   22.34884      -  69.8  141s
  2236  1424 infeasible   35               -   23.44022      -  70.4  146s
  2348  1483   40.00000    9   65          -   23.44022      -  70.2  150s
  2624  1640   40.00000   15   59          -   23.44022      -  70.0  157s
  2909  1757   40.00000   19   37          -   23.44022      -  70.3  162s
  3169  1838 1051.58112   32  115          -   23.44022      -  71.8  170s
  3171  1839   40.00000   22  138          -   23.44022      -  71.7  182s
H 3171  1747                    3453.1622320   23.44022  99.3%  71.7  187s
H 3171  1659                    2961.4285714   23.44022  99.2%  71.7  187s
  3174  1661  755.71429   18  115 2961.42857   26.20964  99.1%  71.7  192s
  3175  1662  355.71763   23   99 2961.42857   28.02716  99.1%  71.7  199s
  3176  1663 2187.14286   21  104 2961.42857   28.02716  99.1%  71.6  204s
  3177  1663 1470.00000   10  112 2961.42857   29.00095  99.0%  71.6  211s
  3178  1664   63.54965   31  108 2961.42857   29.00251  99.0%  71.6  216s
  3179  1665 1430.00000   20  123 2961.42857   29.00378  99.0%  71.6  225s
  3180  1665   69.85803   24  123 2961.42857   29.00556  99.0%  71.5  231s
  3181  1666  715.71429   12  110 2961.42857   29.00865  99.0%  71.5  237s
  3182  1667   59.25344   18  112 2961.42857   29.00865  99.0%  71.5  243s
H 3182  1584                    2123.1622320   29.00865  98.6%  71.5  251s
  3183  1584   80.00000   18  113 2123.16223   39.39970  98.1%  71.5  259s
  3184  1585   80.00000   12  116 2123.16223   40.00000  98.1%  71.5  272s
  3185  1586   80.00000   22  116 2123.16223   40.00000  98.1%  71.4  286s
  3186  1586   48.39132   16  107 2123.16223   40.00000  98.1%  71.4  291s
  3187  1587 2123.16223   14  110 2123.16223   40.00000  98.1%  71.4  300s
  3188  1588 2123.16223   19  102 2123.16223   40.00000  98.1%  71.4  305s
  3189  1588 1430.00000   23   85 2123.16223   40.00000  98.1%  71.3  310s
  3190  1589  938.42382   19  110 2123.16223   40.00000  98.1%  71.3  315s
  3191  1590  755.71429   13  112 2123.16223   40.00000  98.1%  71.3  330s
  3192  1590 1471.42857   16   94 2123.16223   40.00000  98.1%  71.3  340s
  3193  1591 2123.16223   21   94 2123.16223   40.00000  98.1%  71.2  345s
  3194  1594   40.00000   11   87 2123.16223   40.00000  98.1%  85.3  374s
  3196  1596   40.00000   12   87 2123.16223   40.00000  98.1%  85.3  412s
  3199  1600   40.00000   13   74 2123.16223   40.00000  98.1%  85.3  432s
